results-heuristic-start/lp/BA_04_deadline.lp
\ Model JobShopModel
\ LP format - for model browsing. Use MPS format to capture full model detail.
Minimize
  0 x[0,0,0,0] + 0 x[0,0,1,0] + 0 x[0,1,0,1] + 0 x[0,1,1,0] + 0 x[1,0,0,0]
   + 0 x[1,0,0,1] + 0 x[1,0,1,0] + 0 x[1,0,1,1] + 0 x[1,0,2,0]
   + 0 x[1,0,2,1] + 0 x[1,1,0,0] + 0 x[1,1,0,1] + 0 x[1,1,1,0]
   + 0 x[1,1,1,1] + 0 x[2,0,0,0] + 0 x[2,0,0,1] + 0 x[2,0,1,0]
   + 0 x[2,0,1,1] + 0 x[2,0,2,0] + 0 x[2,1,0,0] + 0 x[2,1,0,1]
   + 0 x[2,1,1,0] + 0 x[2,1,1,1] + 0 x[2,1,2,1] + Z_FO
Subject To
 assignment_job0_stage0_constraint: y[0,0,1] = 1
 assignment_job0_stage1_constraint: y[0,1,1] = 1
 assignment_job1_stage0_constraint: y[1,0,0] = 1
 assignment_job1_stage1_constraint: y[1,1,1] = 1
 assignment_job2_stage0_constraint: y[2,0,1] = 1
 assignment_job2_stage1_constraint: y[2,1,1] = 1
 start_time_job0_stage0_machine1_constraint1: - 1e+06 y[0,0,1] + s[0,0,1]
   <= 0
 start_time_job0_stage1_machine1_constraint1: - 1e+06 y[0,1,1] + s[0,1,1]
   <= 0
 start_time_job1_stage0_machine0_constraint1: - 1e+06 y[1,0,0] + s[1,0,0]
   <= 0
 start_time_job1_stage1_machine1_constraint1: - 1e+06 y[1,1,1] + s[1,1,1]
   <= 0
 start_time_job2_stage0_machine1_constraint1: - 1e+06 y[2,0,1] + s[2,0,1]
   <= 0
 start_time_job2_stage1_machine1_constraint1: - 1e+06 y[2,1,1] + s[2,1,1]
   <= 0
 precedence_between_0,1_to_0,0_if_x_[j,l,h,z,i]=1: - 1e+06 y[0,0,1]
   - 1e+06 y[0,1,1] - 1e+06 x[0,0,0,1] + s[0,0,1] - s[0,1,1]
   >= -2.99999e+06
 precedence_between_0,0_to_0,1_if_x_[j,l,h,z,i]=0: - 1e+06 y[0,0,1]
   - 1e+06 y[0,1,1] + 1e+06 x[0,0,0,1] - s[0,0,1] + s[0,1,1]
   >= -1.999976e+06
 precedence_between_1,1_to_0,0_if_x_[j,l,h,z,i]=1: - 1e+06 y[0,0,1]
   - 1e+06 y[1,1,1] - 1e+06 x[0,0,1,1] + s[0,0,1] - s[1,1,1]
   >= -2.999981e+06
 precedence_between_0,0_to_1,1_if_x_[j,l,h,z,i]=0: - 1e+06 y[0,0,1]
   - 1e+06 y[1,1,1] + 1e+06 x[0,0,1,1] - s[0,0,1] + s[1,1,1]
   >= -1.999971e+06
 precedence_between_2,0_to_0,0_if_x_[j,l,h,z,i]=1: - 1e+06 y[0,0,1]
   - 1e+06 y[2,0,1] - 1e+06 x[0,0,2,0] + s[0,0,1] - s[2,0,1]
   >= -2.999992e+06
 precedence_between_0,0_to_2,0_if_x_[j,l,h,z,i]=0: - 1e+06 y[0,0,1]
   - 1e+06 y[2,0,1] + 1e+06 x[0,0,2,0] - s[0,0,1] + s[2,0,1]
   >= -1.999981e+06
 precedence_between_2,1_to_0,0_if_x_[j,l,h,z,i]=1: - 1e+06 y[0,0,1]
   - 1e+06 y[2,1,1] - 1e+06 x[0,0,2,1] + s[0,0,1] - s[2,1,1]
   >= -2.999981e+06
 precedence_between_0,0_to_2,1_if_x_[j,l,h,z,i]=0: - 1e+06 y[0,0,1]
   - 1e+06 y[2,1,1] + 1e+06 x[0,0,2,1] - s[0,0,1] + s[2,1,1]
   >= -1.999987e+06
 precedence_between_0,0_to_0,1_if_x_[j,l,h,z,i]=1: - 1e+06 y[0,0,1]
   - 1e+06 y[0,1,1] - 1e+06 x[0,1,0,0] - s[0,0,1] + s[0,1,1]
   >= -2.999976e+06
 precedence_between_0,1_to_0,0_if_x_[j,l,h,z,i]=0: - 1e+06 y[0,0,1]
   - 1e+06 y[0,1,1] + 1e+06 x[0,1,0,0] + s[0,0,1] - s[0,1,1]
   >= -1.99999e+06
 precedence_between_1,1_to_0,1_if_x_[j,l,h,z,i]=1: - 1e+06 y[0,1,1]
   - 1e+06 y[1,1,1] - 1e+06 x[0,1,1,1] + s[0,1,1] - s[1,1,1]
   >= -2.999977e+06
 precedence_between_0,1_to_1,1_if_x_[j,l,h,z,i]=0: - 1e+06 y[0,1,1]
   - 1e+06 y[1,1,1] + 1e+06 x[0,1,1,1] - s[0,1,1] + s[1,1,1]
   >= -1.99998e+06
 precedence_between_2,0_to_0,1_if_x_[j,l,h,z,i]=1: - 1e+06 y[0,1,1]
   - 1e+06 y[2,0,1] - 1e+06 x[0,1,2,0] + s[0,1,1] - s[2,0,1]
   >= -2.999981e+06
 precedence_between_0,1_to_2,0_if_x_[j,l,h,z,i]=0: - 1e+06 y[0,1,1]
   - 1e+06 y[2,0,1] + 1e+06 x[0,1,2,0] - s[0,1,1] + s[2,0,1]
   >= -1.999983e+06
 precedence_between_2,1_to_0,1_if_x_[j,l,h,z,i]=1: - 1e+06 y[0,1,1]
   - 1e+06 y[2,1,1] - 1e+06 x[0,1,2,1] + s[0,1,1] - s[2,1,1]
   >= -2.99999e+06
 precedence_between_0,1_to_2,1_if_x_[j,l,h,z,i]=0: - 1e+06 y[0,1,1]
   - 1e+06 y[2,1,1] + 1e+06 x[0,1,2,1] - s[0,1,1] + s[2,1,1]
   >= -1.99998e+06
 precedence_between_2,0_to_1,1_if_x_[j,l,h,z,i]=1: - 1e+06 y[1,1,1]
   - 1e+06 y[2,0,1] - 1e+06 x[1,1,2,0] + s[1,1,1] - s[2,0,1]
   >= -2.999987e+06
 precedence_between_1,1_to_2,0_if_x_[j,l,h,z,i]=0: - 1e+06 y[1,1,1]
   - 1e+06 y[2,0,1] + 1e+06 x[1,1,2,0] - s[1,1,1] + s[2,0,1]
   >= -1.999994e+06
 precedence_between_2,1_to_1,1_if_x_[j,l,h,z,i]=1: - 1e+06 y[1,1,1]
   - 1e+06 y[2,1,1] - 1e+06 x[1,1,2,1] + s[1,1,1] - s[2,1,1]
   >= -2.999976e+06
 precedence_between_1,1_to_2,1_if_x_[j,l,h,z,i]=0: - 1e+06 y[1,1,1]
   - 1e+06 y[2,1,1] + 1e+06 x[1,1,2,1] - s[1,1,1] + s[2,1,1]
   >= -1.999977e+06
 precedence_between_2,1_to_2,0_if_x_[j,l,h,z,i]=1: - 1e+06 y[2,0,1]
   - 1e+06 y[2,1,1] - 1e+06 x[2,0,2,1] + s[2,0,1] - s[2,1,1]
   >= -2.999993e+06
 precedence_between_2,0_to_2,1_if_x_[j,l,h,z,i]=0: - 1e+06 y[2,0,1]
   - 1e+06 y[2,1,1] + 1e+06 x[2,0,2,1] - s[2,0,1] + s[2,1,1]
   >= -1.999994e+06
 precedence_between_2,0_to_2,1_if_x_[j,l,h,z,i]=1: - 1e+06 y[2,0,1]
   - 1e+06 y[2,1,1] - 1e+06 x[2,1,2,0] - s[2,0,1] + s[2,1,1]
   >= -2.999994e+06
 precedence_between_2,1_to_2,0_if_x_[j,l,h,z,i]=0: - 1e+06 y[2,0,1]
   - 1e+06 y[2,1,1] + 1e+06 x[2,1,2,0] + s[2,0,1] - s[2,1,1]
   >= -1.999993e+06
 start_time_domain_job0_stage0_machine1_constraint: s[0,0,1] >= 0
 initial_start_time_job0_stage0_machine1_constraint: - 3 y[0,0,1]
   + s[0,0,1] >= 0
 start_time_domain_job0_stage1_machine1_constraint: s[0,1,1] >= 0
 initial_start_time_job0_stage0_machine1_constraint: s[0,1,1] >= 0
 start_time_domain_job1_stage0_machine0_constraint: s[1,0,0] >= 0
 initial_start_time_job1_stage0_machine0_constraint: - 2 y[1,0,0]
   + s[1,0,0] >= 0
 start_time_domain_job1_stage1_machine1_constraint: s[1,1,1] >= 0
 initial_start_time_job1_stage0_machine1_constraint: - 2 y[1,1,1]
   + s[1,1,1] >= 0
 start_time_domain_job2_stage0_machine1_constraint: s[2,0,1] >= 0
 initial_start_time_job2_stage0_machine1_constraint: s[2,0,1] >= 0
 start_time_domain_job2_stage1_machine1_constraint: s[2,1,1] >= 0
 initial_start_time_job2_stage0_machine1_constraint: - 2 y[2,1,1]
   + s[2,1,1] >= 0
 R48: - 5 y[0,1,1] + s[0,0,1] - s[0,1,1] >= 0
 R49: - 3 y[1,1,1] + s[1,0,0] - s[1,1,1] >= 0
 R50: - 4 y[2,1,1] + s[2,0,1] - s[2,1,1] >= 0
 auxiliaryOF_constraint: 4 y[0,0,1] + s[0,0,1] - 1e+06 C49 >= -999990
 auxiliaryOF_constraint: 4 y[0,0,1] + s[0,0,1] - 1e+06 C49 <= 10
 auxiliaryOF_constraint: 4 y[1,0,0] + s[1,0,0] - 1e+06 C50 >= -999994
 auxiliaryOF_constraint: 4 y[1,0,0] + s[1,0,0] - 1e+06 C50 <= 6
 auxiliaryOF_constraint: 3 y[2,0,1] + s[2,0,1] - 1e+06 C51 >= -999990
 auxiliaryOF_constraint: 3 y[2,0,1] + s[2,0,1] - 1e+06 C51 <= 10
 OF_constraint: Z_FO + 6 C49 + 2 C50 + 7 C51 + [ - s[0,0,1] * C49
   - s[1,0,0] * C50 - s[2,0,1] * C51 ] >= 0
Bounds
Binaries
 y[0,0,1] y[0,1,1] y[1,0,0] y[1,1,1] y[2,0,1] y[2,1,1] x[0,0,0,0]
 x[0,0,0,1] x[0,0,1,0] x[0,0,1,1] x[0,0,2,0] x[0,0,2,1] x[0,1,0,0]
 x[0,1,0,1] x[0,1,1,0] x[0,1,1,1] x[0,1,2,0] x[0,1,2,1] x[1,0,0,0]
 x[1,0,0,1] x[1,0,1,0] x[1,0,1,1] x[1,0,2,0] x[1,0,2,1] x[1,1,0,0]
 x[1,1,0,1] x[1,1,1,0] x[1,1,1,1] x[1,1,2,0] x[1,1,2,1] x[2,0,0,0]
 x[2,0,0,1] x[2,0,1,0] x[2,0,1,1] x[2,0,2,0] x[2,0,2,1] x[2,1,0,0]
 x[2,1,0,1] x[2,1,1,0] x[2,1,1,1] x[2,1,2,0] x[2,1,2,1] C49 C50 C51
Generals
 Z_FO
End
