results/log/BA_04_deadline.log

Gurobi 10.0.1 (win64) logging started Mon Aug 28 18:51:19 2023

Set parameter LogFile to value "results//log/BA_04_deadline.log"
Gurobi Optimizer version 10.0.1 build v10.0.1rc0 (win64)

CPU model: AMD Ryzen 7 3700X 8-Core Processor, instruction set [SSE2|AVX|AVX2]
Thread count: 8 physical cores, 16 logical processors, using up to 16 threads

Optimize a model with 57 rows, 52 columns and 181 nonzeros
Model fingerprint: 0x0ddf29e2
Model has 1 quadratic constraint
Variable types: 6 continuous, 46 integer (45 binary)
Coefficient statistics:
  Matrix range     [1e+00, 1e+06]
  QMatrix range    [1e+00, 1e+00]
  QLMatrix range   [1e+00, 7e+00]
  Objective range  [1e+00, 1e+00]
  Bounds range     [1e+00, 1e+00]
  RHS range        [1e+00, 3e+06]
Presolve removed 35 rows and 37 columns
Presolve time: 0.00s
Presolved: 22 rows, 15 columns, 62 nonzeros
Variable types: 6 continuous, 9 integer (8 binary)
Found heuristic solution: objective 106.0000000
Found heuristic solution: objective 98.0000000
Found heuristic solution: objective 75.0000000

Root relaxation: objective 9.000000e+00, 7 iterations, 0.00 seconds (0.00 work units)

    Nodes    |    Current Node    |     Objective Bounds      |     Work
 Expl Unexpl |  Obj  Depth IntInf | Incumbent    BestBd   Gap | It/Node Time

     0     0    9.00000    0    6   75.00000    9.00000  88.0%     -    0s
     0     0   33.00000    0    6   75.00000   33.00000  56.0%     -    0s

Cutting planes:
  Cover: 2
  Implied bound: 3
  Clique: 1
  MIR: 4
  RLT: 2
  Relax-and-lift: 6

Explored 1 nodes (26 simplex iterations) in 0.00 seconds (0.00 work units)
Thread count was 16 (of 16 available processors)

Solution count 3: 75 98 106 

Optimal solution found (tolerance 1.00e-04)
Best objective 7.500000000000e+01, best bound 7.500000000000e+01, gap 0.0000%
Warning: constraint name "precedence between 0,1 to 0,0 if x_[j,l,h,z,i]=1" has a space
Warning: constraint name "precedence between 0,1 to 0,0 if x_[j,l,h,z,i]=1" has a space
Warning: default constraint names used to write mps file
